language ESSENCE' 1.0
letting values be [[0, 7, 3, 4, 9, 8, 1, 6, 2], [1, 0, 8, 2, 0, 6, 0, 0, 0], [2, 6, 9, 5, 1, 3, 4, 7, 0], [0, 0, 5, 7, 0, 2, 8, 9, 6], [0, 3, 2, 0, 6, 9, 7, 0, 0], [0, 0, 0, 8, 5, 4, 2, 0, 0], [6, 0, 4, 3, 0, 0, 9, 0, 7], [3, 2, 1, 9, 0, 7, 6, 5, 0], [9, 0, 7, 0, 4, 5, 0, 2, 1]]